SCIP Status        : solving was interrupted [time limit reached]
Total Time         :    3600.01
  solving          :    3600.00
  presolving       :       0.33 (included in solving)
  reading          :       0.01
  copying          :       1.79 (55 #copies) (minimal 0.00, maximal 0.11, average 0.03)
Original Problem   :
  Problem name     : bbbenchmark/pw05_100.1.cut
  Variables        : 101 (100 binary, 0 integer, 0 implicit integer, 1 continuous)
  Constraints      : 1 initial, 1 maximal
  Objective        : minimize, 1 non-zeros (abs.min = 1, abs.max = 1)
Presolved Problem  :
  Problem name     : t_bbbenchmark/pw05_100.1.cut
  Variables        : 1757 (100 binary, 0 integer, 1640 implicit integer, 17 continuous)
  Constraints      : 1689 initial, 8352 maximal
  Objective        : minimize, 1 non-zeros (abs.min = 1, abs.max = 1)
  Nonzeros         : 8427 constraint, 202 clique table
Presolvers         :   ExecTime  SetupTime  Calls  FixedVars   AggrVars   ChgTypes  ChgBounds   AddHoles    DelCons    AddCons   ChgSides   ChgCoefs
  boundshift       :       0.00       0.00      0          0          0          0          0          0          0          0          0          0
  convertinttobin  :       0.00       0.00      0          0          0          0          0          0          0          0          0          0
  domcol           :       0.00       0.00      1          0          0          0          0          0          0          0          0          0
  dualagg          :       0.00       0.00      0          0          0          0          0          0          0          0          0          0
  dualcomp         :       0.00       0.00      1          0          0          0          0          0          0          0          0          0
  dualinfer        :       0.00       0.00      0          0          0          0          0          0          0          0          0          0
  dualsparsify     :       0.00       0.00      1          0          0          0          0          0          0          0          0          0
  gateextraction   :       0.00       0.00      0          0          0          0          0          0          0          0          0          0
  implics          :       0.00       0.00      2          0          0          0          0          0          0          0          0          0
  inttobinary      :       0.00       0.00      0          0          0          0          0          0          0          0          0          0
  qpkktref         :       0.00       0.00      0          0          0          0          0          0          0          0          0          0
  redvub           :       0.00       0.00      0          0          0          0          0          0          0          0          0          0
  sparsify         :       0.00       0.00      1          0          0          0          0          0          0          0          0          0
  stuffing         :       0.00       0.00      0          0          0          0          0          0          0          0          0          0
  trivial          :       0.00       0.00      4          0          0          0          0          0          0          0          0          0
  tworowbnd        :       0.00       0.00      0          0          0          0          0          0          0          0          0          0
  dualfix          :       0.00       0.00      4          0          0          0          0          0          0          0          0          0
  genvbounds       :       0.00       0.00      0          0          0          0          0          0          0          0          0          0
  probing          :       0.13       0.00      1          0          0          0          0          0          0          0          0          0
  pseudoobj        :       0.00       0.00      1          0          0          0          1          0          0          0          0          0
  symmetry         :       0.00       0.00      0          0          0          0          0          0          0          0          0          0
  vbounds          :       0.00       0.00      1          0          0          0          0          0          0          0          0          0
  varbound         :       0.00       0.00      2          0          0          0          0          0          0          0          0          0
  and              :       0.01       0.01      2          0          0          0          0          0          0          0          0          0
  linear           :       0.00       0.00      2          0          0          0          0          0          0          0          0          0
  logicor          :       0.00       0.00      0          0          0          0          0          0          0          0          0          0
  bounddisjunction :       0.00       0.00      0          0          0          0          0          0          0          0          0          0
  nonlinear        :       0.19       0.00      5          0          0          0          1          0          0       1688          0          0
  benders          :       0.00       0.00      0          0          0          0          0          0          0          0          0          0
  components       :       0.00       0.00      1          0          0          0          0          0          0          0          0          0
  root node        :          -          -      -          0          -          -         12          -          -          -          -          -
Constraints        :     Number  MaxNumber  #Separate #Propagate    #EnfoLP    #EnfoRelax  #EnfoPS    #Check   #ResProp    Cutoffs    DomReds       Cuts    Applied      Conss   Children
  benderslp        :          0          0          0          0      84829          0          0       1746          0          0          0          0          0          0          0
  integral         :          0          0          0          0      84829          0          0       1746          0          0        942          0          0        406     169176
  varbound         :         16         16        209     560631          0          0          0         23          0          0      62934          0          0          0          0
  and              :       1640       1640      99562     587260          0          0          0         23     327149          4     377233        487        424          0          0
  linear           :         33+        68        209     587326          0          0          0         21       1429         32     349688          0          0          0          0
  logicor          :          0+      5820          0      93673          0          0          0          0        163        285         76          0          0          0          0
  bounddisjunction :          0+       843          0      50346          0          0          0          0          2         22          0          0          0          0          0
  benders          :          0          0          0          0          0          0          0         19          0          0          0          0          0          0          0
  countsols        :          0          0          0          0          0          0          0         19          0          0          0          0          0          0          0
  components       :          0          0          0          0          0          0          0          0          0          0          0          0          0          0          0
Constraint Timings :  TotalTime  SetupTime   Separate  Propagate     EnfoLP     EnfoPS     EnfoRelax   Check    ResProp    SB-Prop
  benderslp        :       0.11       0.00       0.00       0.00       0.11       0.00       0.00       0.00       0.00       0.00
  integral         :      65.07       0.00       0.00       0.00      65.07       0.00       0.00       0.00       0.00       0.00
  varbound         :       1.10       0.00       0.00       1.10       0.00       0.00       0.00       0.00       0.00       0.00
  and              :      65.71       0.01      47.99      17.24       0.00       0.00       0.00       0.01       0.19       0.27
  linear           :       3.72       0.00       0.07       3.63       0.00       0.00       0.00       0.00       0.01       0.01
  logicor          :       6.31       0.00       0.00       6.31       0.00       0.00       0.00       0.00       0.00       0.00
  bounddisjunction :       1.42       0.00       0.00       1.42       0.00       0.00       0.00       0.00       0.00       0.00
  benders          :       0.00       0.00       0.00       0.00       0.00       0.00       0.00       0.00       0.00       0.00
  countsols        :       0.00       0.00       0.00       0.00       0.00       0.00       0.00       0.00       0.00       0.00
  components       :       0.11       0.00       0.00       0.11       0.00       0.00       0.00       0.00       0.00       0.00
Propagators        : #Propagate   #ResProp    Cutoffs    DomReds
  dualfix          :          4          0          0          0
  genvbounds       :          0          0          0          0
  nlobbt           :          0          0          0          0
  obbt             :          0          0          0          0
  probing          :          0          0          0          0
  pseudoobj        :     393761          0          0         12
  redcost          :     195960          0          0     129550
  rootredcost      :          7          0          0          0
  symmetry         :          0          0          0          0
  vbounds          :      98873          0          0          0
Propagator Timings :  TotalTime  SetupTime   Presolve  Propagate    ResProp    SB-Prop
  dualfix          :       0.00       0.00       0.00       0.00       0.00       0.00
  genvbounds       :       0.29       0.00       0.00       0.29       0.00       0.00
  nlobbt           :       0.00       0.00       0.00       0.00       0.00       0.00
  obbt             :       0.00       0.00       0.00       0.00       0.00       0.00
  probing          :       0.13       0.00       0.13       0.00       0.00       0.00
  pseudoobj        :       0.68       0.00       0.00       0.68       0.00       0.00
  redcost          :      10.37       0.00       0.00      10.37       0.00       0.00
  rootredcost      :       0.51       0.00       0.00       0.50       0.00       0.01
  symmetry         :       0.22       0.00       0.00       0.22       0.00       0.00
  vbounds          :       0.54       0.00       0.00       0.54       0.00       0.00
Conflict Analysis  :       Time      Calls    Success    DomReds  Conflicts   Literals    Reconvs ReconvLits   Dualrays   Nonzeros   LP Iters   (pool size: [10000,10000])
  propagation      :       0.00        315        217          -        364       75.8          0        0.0          -          -          -
  infeasible LP    :       0.16         84         84          -       3377      140.7          0        0.0        225      149.4          0
  bound exceed. LP :      15.54       4029       3871          -      93627      104.9          0        0.0          0        0.0      47127
  strong branching :       0.00          0          0          -          0        0.0          0        0.0          -          -          0
  pseudo solution  :       0.00          0          0          -          0        0.0          0        0.0          -          -          -
  applied globally :       0.25          -          -          0      20534      113.0          -          -        225          -          -
  applied locally  :          -          -          -          0          0        0.0          -          -          0          -          -
Separators         :   ExecTime  SetupTime      Calls  RootCalls    Cutoffs    DomReds  FoundCuts ViaPoolAdd  DirectAdd    Applied ViaPoolApp  DirectApp      Conss
  cut pool         :       8.47          -      23784        235          -          -      35024    2582056          -          -          -          -          -    (maximal pool size:       5226)
  aggregation      :     467.44       0.00       5992        209          0          0          6          2          0          2          2          0          0
  > cmir           :          -          -          -          -          -          -          -          2          0          2          2          0          -
  > flowcover      :          -          -          -          -          -          -          -          0          0          0          0          0          -
  > knapsackcover  :          -          -          -          -          -          -          -          0          0          0          0          0          -
  cgmip            :       0.00       0.00          0          0          0          0          0          0          0          0          0          0          0
  clique           :       0.00       0.00        209        209          0          0          0          0          0          0          0          0          0
  closecuts        :       0.00       0.00          0          0          0          0          0          0          0          0          0          0          0
  convexproj       :       0.00       0.00          0          0          0          0          0          0          0          0          0          0          0
  disjunctive      :       0.00       0.00          0          0          0          0          0          0          0          0          0          0          0
  eccuts           :       0.00       0.00          0          0          0          0          0          0          0          0          0          0          0
  gauge            :       0.00       0.00          0          0          0          0          0          0          0          0          0          0          0
  gomory           :       0.00       0.00          0          0          0          0          0          0          0          0          0          0          0
  > gomorymi       :          -          -          -          -          -          -          -          0          0          0          0          0          -
  > strongcg       :          -          -          -          -          -          -          -          0          0          0          0          0          -
  impliedbounds    :       0.36       0.00       5992        209          0          0          0          0          0          0          0          0          0
  interlattice     :       0.00       0.00          0          0          0          0          0          0          0          0          0          0          0
  interminor       :       0.00       0.00          0          0          0          0          0          0          0          0          0          0          0
  intersub         :       3.78       0.00        160        160          0          0        160          0        160        160          0        160          0
  intobj           :       0.00       0.00          0          0          0          0          0          0          0          0          0          0          0
  mcf              :       0.00       0.00          1          1          0          0          0          0          0          0          0          0          0
  minor            :       0.00       0.00          0          0          0          0          0          0          0          0          0          0          0
  mixing           :       0.02       0.00       5992        209          0          0          0          0          0          0          0          0          0
  oddcycle         :       0.00       0.00          0          0          0          0          0          0          0          0          0          0          0
  rapidlearning    :       0.00       0.00          0          0          0          0          0          0          0          0          0          0          0
  rlt              :       0.01       0.00         10         10          0          0          0          0          0          0          0          0          0
  zerohalf         :      42.03       0.00       4641         20          0          0      35018    2582054          0     151789     151789          0          0
Cutselectors       :   ExecTime  SetupTime      Calls  RootCalls   Selected     Forced   Filtered  RootSelec   RootForc   RootFilt 
  hybrid           :       3.19       0.00      11516        207     152376          0    2430327        366          0          2
Pricers            :   ExecTime  SetupTime      Calls       Vars
  problem variables:       0.00          -          0          0
Branching Rules    :   ExecTime  SetupTime   BranchLP  BranchExt   BranchPS    Cutoffs    DomReds       Cuts      Conss   Children
  allfullstrong    :       0.00       0.00          0          0          0          0          0          0          0          0
  cloud            :       0.00       0.00          0          0          0          0          0          0          0          0
  distribution     :       0.00       0.00          0          0          0          0          0          0          0          0
  fullstrong       :       0.00       0.00          0          0          0          0          0          0          0          0
  inference        :       0.00       0.00          0          0          0          0          0          0          0          0
  leastinf         :       0.00       0.00          0          0          0          0          0          0          0          0
  lookahead        :       0.00       0.00          0          0          0          0          0          0          0          0
  mostinf          :       0.00       0.00          0          0          0          0          0          0          0          0
  multaggr         :       0.00       0.00          0          0          0          0          0          0          0          0
  nodereopt        :       0.00       0.00          0          0          0          0          0          0          0          0
  pscost           :       0.00       0.00          0          0          0          0          0          0          0          0
  random           :       0.00       0.00          0          0          0          0          0          0          0          0
  relpscost        :      64.73       0.00      84829          0          0          0        942          0        407     169176
  vanillafullstrong:       0.00       0.00          0          0          0          0          0          0          0          0
Primal Heuristics  :   ExecTime  SetupTime      Calls      Found       Best
  LP solutions     :       0.00          -          -          0          0
  relax solutions  :       0.00          -          -          0          0
  pseudo solutions :       0.00          -          -          0          0
  strong branching :       0.02          -          -          0          0
  actconsdiving    :       0.00       0.00          0          0          0
  adaptivediving   :       4.01       0.00         27          0          0
  alns             :       3.91       0.00         19          5          5
  bound            :       0.00       0.00          0          0          0
  clique           :       0.00       0.00          1          0          0
  coefdiving       :       0.00       0.00          0          0          0
  completesol      :       0.00       0.00          0          0          0
  conflictdiving   :     119.15       0.00        771          0          0
  crossover        :       2.06       0.00          7          0          0
  dins             :       0.00       0.00          0          0          0
  distributiondivin:      56.72       0.00        230          0          0
  dps              :       0.00       0.00          0          0          0
  dualval          :       0.00       0.00          0          0          0
  farkasdiving     :       0.00       0.00          0          0          0
  feaspump         :       1.28       0.00          1          1          1
  fixandinfer      :       0.00       0.00          0          0          0
  fracdiving       :      46.32       0.00        290          0          0
  gins             :       0.13       0.00          0          0          0
  guideddiving     :      45.68       0.00        290          1          1
  indicator        :       0.07       0.00          0          0          0
  indicatordiving  :       0.00       0.00          0          0          0
  intdiving        :       0.00       0.00          0          0          0
  intshifting      :       0.68       0.00         42          0          0
  linesearchdiving :      41.75       0.00        301          0          0
  localbranching   :       0.00       0.00          0          0          0
  locks            :       0.01       0.00          1          0          0
  lpface           :       0.11       0.00          0          0          0
  mpec             :     442.63       0.00         11          0          0
  multistart       :       0.00       0.00          0          0          0
  mutation         :       0.00       0.00          0          0          0
  nlpdiving        :      64.11       0.00          3          0          0
  objpscostdiving  :      16.22       0.00         39          0          0
  octane           :       0.00       0.00          0          0          0
  ofins            :       0.08       0.00          0          0          0
  oneopt           :       0.13       0.00         12          0          0
  padm             :       0.00       0.00          0          0          0
  proximity        :       0.00       0.00          0          0          0
  pscostdiving     :      45.30       0.00        253          1          1
  randrounding     :       1.33       0.00       1723          0          0
  rens             :       0.00       0.00          0          0          0
  reoptsols        :       0.00       0.00          0          0          0
  repair           :       0.00       0.00          0          0          0
  rins             :       3.20       0.00         29          1          1
  rootsoldiving    :      17.27       0.00         32          0          0
  rounding         :       1.10       0.00       4225          0          0
  shiftandpropagate:       0.00       0.00          0          0          0
  shifting         :      40.42       0.00       9108          4          3
  simplerounding   :       0.09       0.00          0          0          0
  subnlp           :     119.91       0.00          0          0          0
  trivial          :       0.01       0.00          2          2          2
  trivialnegation  :       0.00       0.00          0          0          0
  trustregion      :       0.00       0.00          0          0          0
  trysol           :       0.12       0.00          0          0          0
  twoopt           :       0.00       0.00          0          0          0
  undercover       :       0.31       0.00          1          1          1
  vbounds          :       0.00       0.00          0          0          0
  veclendiving     :      42.52       0.00        303          0          0
  zeroobj          :       0.00       0.00          0          0          0
  zirounding       :       0.31       0.00       1000          0          0
  other solutions  :          -          -          -          0          -
Diving (single)    :      Calls      Nodes   LP Iters Backtracks  Conflicts   MinDepth   MaxDepth   AvgDepth  RoundSols  NLeafSols  MinSolDpt  MaxSolDpt  AvgSolDpt
  actconsdiving    :          0          -          -          -          -          -          -          -          -          -          -          -          -
  coefdiving       :          0          -          -          -          -          -          -          -          -          -          -          -          -
  conflictdiving   :        771      31495     895281        792      44406         55         87       62.1          0          -          -          -          -
  distributiondivin:        230       9017     315610        256       5875         51         75       59.7          0          -          -          -          -
  farkasdiving     :          0          -          -          -          -          -          -          -          -          -          -          -          -
  fracdiving       :        290      36080     312401         44        974         60        304      145.6          0          -          -          -          -
  guideddiving     :        290      28446     323034         86       2840         58        235      120.4          0          1        113        113      113.0
  indicatordiving  :          0          -          -          -          -          -          -          -          -          -          -          -          -
  linesearchdiving :        301      14887     312797        199      13785         52         94       72.5          0          -          -          -          -
  pscostdiving     :        253      10416     326955        261       7287         50         72       62.5          0          1         69         69       69.0
  veclendiving     :        303      12537     312967        238      18541         54         90       62.7          0          -          -          -          -
Diving (adaptive)  :      Calls      Nodes   LP Iters Backtracks  Conflicts   MinDepth   MaxDepth   AvgDepth  RoundSols  NLeafSols  MinSolDpt  MaxSolDpt  AvgSolDpt
  actconsdiving    :          3         86       2946          3         63         58         59       58.3          0          -          -          -          -
  coefdiving       :          9        374       7516          3        427         53         82       64.6          0          -          -          -          -
  conflictdiving   :          0          -          -          -          -          -          -          -          -          -          -          -          -
  distributiondivin:          0          -          -          -          -          -          -          -          -          -          -          -          -
  farkasdiving     :          0          -          -          -          -          -          -          -          -          -          -          -          -
  fracdiving       :          0          -          -          -          -          -          -          -          -          -          -          -          -
  guideddiving     :          7        805       8847          1         52         60        174      136.3          0          -          -          -          -
  indicatordiving  :          0          -          -          -          -          -          -          -          -          -          -          -          -
  linesearchdiving :          1         64       1381          0         28         81         81       81.0          0          -          -          -          -
  pscostdiving     :          2         57       1211          2         24         60         69       64.5          0          -          -          -          -
  veclendiving     :          5         90       1223          2        131         60         72       64.0          0          -          -          -          -
Neighborhoods      :      Calls  SetupTime  SolveTime SolveNodes       Sols       Best       Exp3  EpsGreedy        UCB TgtFixRate  Opt  Inf Node Stal  Sol  Usr Othr Actv
  rens             :          1       0.00       0.00          0          0          0    0.00000   -1.00000    0.06923      0.900    0    0    0    0    0    0    1    1
  rins             :          2       0.09       0.08         76          0          0    0.00000   -1.00000    0.46450      0.850    0    1    0    1    0    0    0    1
  mutation         :          2       0.08       0.08         64          0          0    0.00000   -1.00000    0.47484      0.850    0    1    0    1    0    0    0    1
  localbranching   :          1       0.03       0.02         11          0          0    0.00000   -1.00000    0.55823      0.700    0    1    0    0    0    0    0    1
  crossover        :          2       0.09       0.01          2          0          0    0.00000   -1.00000    0.54755      0.550    0    2    0    0    0    0    0    1
  proximity        :          2       0.10       2.08       2199          1          1    0.00000   -1.00000    0.49786      0.850    1    0    0    1    0    0    0    1
  zeroobjective    :          2       0.16       0.18        285          1          1    0.00000   -1.00000    0.49669      0.850    1    0    0    1    0    0    0    1
  dins             :          7       0.51       0.28        442          3          3    0.00000   -1.00000    0.54107      0.822    1    2    0    4    0    0    0    1
  trustregion      :          0       0.00       0.00          0          0          0    0.00000   -1.00000    1.00000      0.900    0    0    0    0    0    0    0    0
Expressions        :   #IntEval  IntEvalTi   #RevProp  RevPropTi    DomReds    Cutoffs  #Estimate  EstimTime  Branching  #Simplify SimplifyTi Simplified
  pow              :          0       0.00          0       0.00          0          0          0       0.00          0          0       0.00          0
  prod             :       9900       0.01          0       0.00          0          0          0       0.00          0       6590       0.00          0
  sum              :          8       0.00          2       0.00          0          0          0       0.00          0          3       0.02          2
  var              :       6080       0.00          0       0.00          0          0          0       0.00          0      15139       0.02          0
  varidx           :          0       0.00          0       0.00          0          0          0       0.00          0          0       0.00          0
LP                 :       Time      Calls Iterations  Iter/call   Iter/sec  Time-0-It Calls-0-It    ItLimit
  primal LP        :     166.20      13233          0       0.00       0.00     166.14      13233
  dual LP          :    1485.38     165756    6020882      39.89    4053.43       7.18      14808
  lex dual LP      :       0.00          0          0       0.00          -
  barrier LP       :       0.00          0          0       0.00          -       0.00          0
  resolve instable :       0.00          0          0       0.00          -
  diving/probing LP:     376.61      10347    2994623     289.42    7951.52
  strong branching :      40.69       1250     174200     139.36    4281.15          -          -        411
    (at root node) :          -         23      18450     802.17          -
  conflict analysis:       8.29       4839      47127       9.74    5684.80
NLP relaxation     :
  solve time       :      62.84 (10 calls)
  convexity        :  nonconvex (49 linear rows, 0 convex ineq., 0 nonconvex ineq., 1640 nonlinear eq. or two-sided ineq.)
NLP Solvers        :  #Problems  ProblemTi    #Solves  SolveTime      #Iter  Time/Iter      #Okay #TimeLimit #IterLimit #LObjLimit #Interrupt  #NumError #EvalError  #OutOfMem #LicenseEr #OtherTerm   #GlobOpt    #LocOpt  #Feasible #LocInfeas #GlobInfea #Unbounded   #Unknown
  ipopt            :         12       6.12         38     511.20       1954       0.26         36          0          2          0          0          0          0          0          0          0          0         20          0         15          0          0          3
B&B Tree           :
  number of runs   :          1
  nodes            :     139247 (84588 internal, 54659 leaves)
  feasible leaves  :          0
  infeas. leaves   :         24
  objective leaves :      54634
  nodes (total)    :     139247 (84588 internal, 54659 leaves)
  nodes left       :      29522
  max depth        :         63
  max depth (total):         63
  backtracks       :      34052 (24.5%)
  early backtracks :          0 (0.0%)
  nodes exc. ref.  :          0 (0.0%)
  delayed cutoffs  :          2
  repropagations   :        104 (310 domain reductions, 0 cutoffs)
  avg switch length:       6.68
  switching time   :     195.74
Estim. Tree Size   :     279310
Estimation Tree    : 169177 nodes (139655 visited, 84588 internal, 55067 leaves, 29522 open), weight: 0.0000 completed 0.0973
Estimations        :      estim      value      trend resolution     smooth
  wbe              : 7425447026050057          -          -          -          -
  tree-profile     :         -1          -          -          -          -
  gap              :    3187766    0.67423    0.00001         64    3272066
  tree-weight      :     279310    0.00000    0.00000         64     279049
  leaf-frequency   :     279310    0.39430    0.00000         64    2168848
  ssg              :    8783623    0.84644   -0.00001         64    8823555
  open-nodes       :     279310 29522.00000   19.89572         64     279049
Root Node          :
  First LP value   : -5.47070707070708e+00
  First LP Iters   :       1636 (18177.78 Iter/sec)
  First LP Time    :       0.09
  Final Dual Bound : -5.15675322972372e+00
  Final Root Iters :      16464
  Root LP Estimate : -1.68948739135662e+00
Solution           :
  Solutions found  :         16 (15 improvements)
  First Solution   : +1.00000000000000e+05   (in run 1, after 0 nodes, 0.00 seconds, depth 0, found by <trivial>)
  Gap First Sol.   :   infinite
  Gap Last Sol.    :      51.39 %
  Primal Bound     : -3.15393939393939e+00   (in run 1, after 54010 nodes, 2324.86 seconds, depth 40, found by <alns>)
  Dual Bound       : -4.67787182572276e+00
  Gap              :      48.32 %
Integrals          :      Total       Avg%
  primal-dual      :  131784.32      36.61
  primal-ref       :          -          - (not evaluated)
  dual-ref         :          -          - (not evaluated)
